FLOW,10,10,5
4,95,3,14,2,44,1,55,0,14,7,14,9,17,8,30,6,91,5,91
4,94,2,16,3,40,0,82,1,49,7,41,8,95,5,69,6,91,9,6
4,73,0,86,1,36,3,67,2,75,8,35,6,68,5,75,7,49,9,11
3,9,2,76,4,81,1,56,0,1,5,14,6,35,9,40,7,51,8,1
2,78,0,99,4,98,3,94,1,95,7,21,9,82,5,70,6,45,8,16
0,99,3,4,1,43,2,50,4,31,8,59,5,92,6,52,7,53,9,67
3,75,1,76,0,42,2,46,4,93,8,27,9,24,7,65,5,32,6,7
2,65,3,31,0,99,1,82,4,30,5,65,8,99,9,79,6,22,7,44
2,61,4,65,1,88,3,14,0,24,6,100,9,78,8,100,7,77,5,33
0,37,4,54,1,4,2,46,3,81,7,100,5,33,8,50,6,78,9,28
